(declare-fun e () String)
(declare-fun c () String)
(declare-fun g () String)
(declare-fun d () String)
(declare-fun f () String)
(declare-fun a () String)
(declare-fun h () String)
(assert (= (str.++ "dh" d a "a") (str.++ a "d")))
(assert (= (str.++ h h c "h" f) g))
(assert (= f (str.++ "dbg" e)))

(check-sat)
